CMD:
./solvers/bin/cadical --plain --no-reduce -t 1600 ./data/cnfs//circular_pointer_top_w128_d8_e0/circular_pointer_top_w128_d8_e0.21.cnf

c --- [ banner ] -------------------------------------------------------------
c 
c CaDiCaL SAT Solver
c Copyright (c) 2016-2024
c A. Biere, M. Fleury, N. Froleyks, K. Fazekas, F. Pollitt, T. Faller
c JKU Linz, University of Freiburg, TU Wien
c 
c Version 2.1.3 5296d3d2a9bf48c154ab2acb5e44625776d821bf
c g++ (Gentoo 12.3.1_p20230526 p2) 12.3.1 20230526 -Wall -Wextra -O3 -DNDEBUG
c Sat Aug 9 07:26:21 PDT 2025 Linux cedar2.int.cedar.computecanada.ca 5.14.0-362.24.2.el9_3.x86_64 x86_64
c 
c --- [ limit ] --------------------------------------------------------------
c 
c setting time limit to 1600 seconds real time (due to '-t 1600')
c 
c --- [ parsing input ] ------------------------------------------------------
c 
c reading DIMACS file from './data/cnfs//circular_pointer_top_w128_d8_e0/circular_pointer_top_w128_d8_e0.21.cnf'
c opening file to read './data/cnfs//circular_pointer_top_w128_d8_e0/circular_pointer_top_w128_d8_e0.21.cnf'
c found 'p cnf 213032 617959' header
c parsed 617959 clauses in 0.12 seconds process time
c 
c --- [ options ] ------------------------------------------------------------
c 
c   --compact=false                (different from default 'true')
c   --decompose=false              (different from default 'true')
c   --deduplicate=false            (different from default 'true')
c   --elim=false                   (different from default 'true')
c   --probe=false                  (different from default 'true')
c   --reduce=false                 (different from default 'true')
c   --subsume=false                (different from default 'true')
c   --ternary=false                (different from default 'true')
c   --transred=false               (different from default 'true')
c   --vivify=false                 (different from default 'true')
c 
c --- [ solving ] ------------------------------------------------------------
c 
c time measured in process time since initialization
c 
c  seconds  reductions  redundant  irredundant
c         MB    restarts       trail       variables
c          level   conflicts       glue          remaining
c 
c *  0.12 98  0 0   0    0    0  0% 0 581811 193833 91%
c {  0.17 102  0 0   0    0    0  0% 0 581811 193833 91%
c i  0.20 103 3932 0   0   65   63 63% 9 581811 193825 91%
c i  0.24 103 2801 0   0  304  275 49% 3 581811 193824 91%
c i  0.24 103 2770 0   0  312  281 49% 3 581811 193173 91%
c i  0.24 103 2686 0   0  334  300 49% 3 581811 190594 89%
c }  0.91 103 1247 0 100 1000  927 46% 9 581811 190594 89%
c [  0.91 103  0 0 100 1000  927  0% 0 581811 190594 89%
c O  0.93 103 1417 0 100 1003  929 36% 15 581811 190594 89%
c i  0.96 103 173 0 100 1104 1018 25% 4 581811 190064 89%
c ]  2.56 103 313 0 101 3001 2499 37% 11 581811 189935 89%
c {  2.56 103 1247 0 101 3001 2499 46% 9 581811 189935 89%
c F  2.57 103 1243 0 102 3004 2502 46% 9 581811 189935 89%
c i  2.95 104 982 0 163 3356 2839 46% 10 581811 189925 89%
c i  2.96 104 979 0 164 3361 2843 46% 10 581811 188640 89%
c i  3.07 104 845 0 170 3612 3073 46% 10 581811 188484 88%
c i  3.13 104 750 0 170 3821 3268 44% 9 581811 188473 88%
c i  3.20 104 669 0 170 4048 3486 43% 8 581811 188468 88%
c i  3.43 104 444 0 170 5379 4789 46% 8 581811 188455 88%
c #  3.86 104 407 0 239 6006 5384 45% 8 581811 188452 88%
c 
c  seconds    reductions  redundant  irredundant
c          MB     restarts       trail       variables
c            level   conflicts       glue          remaining
c 
c }  3.92 104 403 0 247 6057 5435 44% 8 581811 188452 88%
c 1  3.92 104 403 0 247 6057 5435 44% 8 581811 188452 88%
c 
c --- [ result ] -------------------------------------------------------------
c 
s SATISFIABLE
v 1 2 -3 4 5 6 -7 8 -9 10 11 12 -13 -14 15 -16 17 18 -19 20 21 22 23 -24 25 26
v -27 28 29 -30 31 -32 33 34 -35 36 -37 -38 -39 -40 41 42 -43 44 -45 -46 47
v -48 -49 -50 -51 52 -53 54 55 -56 57 58 -59 -60 61 -62 63 64 -65 66 -67 68
v -69 70 -71 -72 73 74 75 -76 -77 78 79 -80 -81 -82 -83 -84 -85 86 -87 -88 89
v 90 -91 92 93 94 95 -96 97 98 -99 100 -101 102 103 -104 105 -106 -107 -108
v -109 -110 111 112 113 -114 -115 -116 117 118 119 120 -121 122 -123 124 125
v -126 127 -128 -129 130 -131 132 133 134 -135 -136 -137 138 139 140 -141 142
v 143 144 -145 -146 147 -148 149 150 -151 152 -153 154 -155 156 -157 158 159
v -160 -161 162 163 -164 165 -166 -167 168 169 170 171 -172 -173 174 175 176
v -177 178 -179 -180 -181 -182 183 184 -185 -186 -187 188 -189 190 191 192
v -193 194 195 196 197 198 199 200 201 -202 -203 204 205 206 -207 -208 -209
v 210 211 212 -213 214 215 216 217 -218 219 220 -221 222 -223 -224 -225 -226
v -227 -228 -229 -230 -231 -232 233 234 235 -236 237 -238 239 -240 241 242 243
v -244 -245 246 247 -248 249 -250 -251 -252 -253 -254 -255 -256 -257 -258 259
v 260 -261 262 263 -264 -265 -266 267 268 -269 270 271 272 273 274 275 -276
v 277 278 279 -280 281 282 283 284 -285 -286 -287 -288 -289 -290 291 292 293
v 294 -295 -296 -297 298 -299 -300 -301 302 303 -304 -305 -306 -307 -308 309
v 310 311 -312 -313 -314 315 -316 -317 318 -319 320 -321 -322 323 -324 -325
v -326 -327 -328 -329 330 -331 332 -333 -334 -335 336 -337 338 -339 -340 341
v 342 -343 -344 -345 346 -347 -348 349 -350 351 352 -353 354 -355 356 -357
v -358 359 -360 361 -362 -363 -364 365 366 367 -368 -369 -370 371 -372 373
v -374 -375 376 377 378 -379 -380 381 382 -383 384 385 -386 -387 388 -389 -390
v 391 -392 -393 394 395 396 397 398 399 400 401 -402 403 -404 405 406 407 -408
... skipped 20327 lines ...
v -212518 212519 -212520 -212521 -212522 -212523 212524 -212525 -212526 212527
v -212528 212529 -212530 -212531 212532 -212533 -212534 -212535 212536 -212537
v -212538 -212539 212540 -212541 -212542 -212543 212544 -212545 -212546 212547
v -212548 212549 -212550 212551 -212552 212553 -212554 -212555 212556 -212557
v -212558 212559 -212560 212561 -212562 212563 -212564 212565 -212566 212567
v -212568 212569 -212570 212571 -212572 212573 -212574 -212575 212576 -212577
v -212578 212579 -212580 212581 -212582 -212583 212584 -212585 -212586 -212587
v 212588 -212589 -212590 -212591 212592 -212593 -212594 -212595 212596 -212597
v -212598 -212599 212600 -212601 -212602 212603 -212604 212605 -212606 212607
v -212608 212609 -212610 212611 -212612 212613 -212614 212615 -212616 212617
v -212618 -212619 212620 -212621 -212622 -212623 212624 -212625 -212626 212627
v -212628 212629 -212630 -212631 212632 -212633 -212634 212635 -212636 212637
v -212638 212639 -212640 212641 -212642 -212643 212644 -212645 -212646 -212647
v 212648 -212649 -212650 212651 -212652 212653 -212654 -212655 212656 -212657
v -212658 212659 -212660 212661 -212662 212663 -212664 212665 -212666 212667
v -212668 212669 -212670 -212671 212672 -212673 -212674 212675 -212676 212677
v -212678 212679 -212680 212681 -212682 -212683 212684 -212685 -212686 212687
v -212688 212689 -212690 -212691 212692 -212693 -212694 -212695 212696 -212697
v -212698 212699 -212700 212701 -212702 -212703 212704 -212705 -212706 212707
v -212708 212709 -212710 212711 -212712 212713 -212714 -212715 212716 -212717
v -212718 212719 -212720 212721 -212722 212723 -212724 212725 -212726 -212727
v 212728 -212729 -212730 212731 -212732 212733 -212734 212735 -212736 212737
v -212738 -212739 212740 -212741 -212742 212743 -212744 212745 -212746 -212747
v 212748 -212749 -212750 212751 -212752 212753 -212754 -212755 212756 -212757
v -212758 212759 -212760 212761 -212762 212763 -212764 212765 -212766 212767
v -212768 212769 -212770 -212771 212772 -212773 -212774 -212775 212776 -212777
v -212778 212779 -212780 212781 -212782 -212783 212784 -212785 -212786 -212787
v 212788 -212789 -212790 212791 -212792 212793 -212794 -212795 212796 -212797
v -212798 212799 -212800 212801 -212802 -212803 212804 -212805 -212806 212807
v -212808 212809 -212810 -212811 212812 -212813 -212814 -212815 212816 -212817
v -212818 212819 -212820 212821 -212822 -212823 212824 -212825 -212826 -212827
v 212828 -212829 -212830 212831 -212832 212833 -212834 212835 -212836 212837
v -212838 212839 -212840 212841 -212842 -212843 212844 -212845 -212846 212847
v -212848 212849 -212850 212851 -212852 212853 -212854 -212855 212856 -212857
v -212858 -212859 212860 -212861 -212862 212863 -212864 212865 -212866 212867
v -212868 212869 -212870 212871 -212872 212873 -212874 -212875 212876 -212877
v -212878 212879 -212880 212881 -212882 212883 -212884 212885 -212886 212887
v -212888 212889 -212890 -212891 212892 -212893 -212894 -212895 212896 -212897
v -212898 -212899 212900 -212901 -212902 212903 -212904 212905 -212906 212907
v -212908 212909 -212910 -212911 212912 -212913 -212914 212915 -212916 212917
v -212918 -212919 212920 -212921 -212922 -212923 212924 -212925 -212926 212927
v -212928 212929 -212930 -212931 212932 -212933 -212934 212935 -212936 212937
v -212938 212939 -212940 212941 -212942 212943 -212944 212945 -212946 -212947
v 212948 -212949 -212950 212951 -212952 212953 -212954 212955 -212956 212957
v -212958 -212959 212960 -212961 -212962 212963 -212964 212965 -212966 212967
v -212968 212969 -212970 212971 -212972 212973 -212974 212975 -212976 212977
v -212978 -212979 212980 -212981 -212982 -212983 212984 -212985 -212986 212987
v -212988 212989 -212990 212991 -212992 212993 -212994 -212995 212996 -212997
v -212998 -212999 213000 -213001 -213002 -213003 213004 -213005 -213006 213007
v -213008 213009 -213010 -213011 213012 -213013 -213014 213015 -213016 213017
v -213018 213019 -213020 213021 -213022 213023 -213024 213025 -213026 -213027
v 213028 -213029 -213030 213031 -213032 0
c 
c --- [ run-time profiling ] -------------------------------------------------
c 
c process time taken by individual solving procedures
c (percentage relative to process time for solving)
c 
c         3.79  100.00% search
c         2.09   55.09% unstable
c         1.65   43.57% stable
c         0.12    3.18% parse
c         0.05    1.34% lucky
c         0.00    0.00% simplify
c   =================================
c         3.79   96.61% solve
c 
c last line shows process time for solving
c (percentage relative to total process time)
c 
c --- [ statistics ] ---------------------------------------------------------
c 
c chronological:              3403        56.18 %  of conflicts
c conflicts:                  6057      1596.18    per second
c decisions:                208272     54885.17    per second
c fixed:                     24579        11.54 %  of all variables
c learned:                    5953        98.28 %  per conflict
c learned_lits:             200843       100.00 %  learned literals
c minimized:                     0         0.00 %  learned literals
c shrunken:                  61241        30.49 %  learned literals
c minishrunken:              24678        12.29 %  learned literals
c otfs:                         50         0.83 %  of conflict
c propagations:           41840960        11.03 M  per second
c rephased:                      3      2019.00    interval
c restarts:                    247        24.52    interval
c stabilizing:                   1        32.99 %  of conflicts
c subsumed:                    510         0.09 %  of all clauses
c strengthened:                 47         0.01 %  of all clauses
c 
c seconds are measured in process time for solving
c 
c --- [ resources ] ----------------------------------------------------------
c 
c total process time since initialization:         3.93    seconds
c total real time since initialization:            3.95    seconds
c maximum resident set size of process:          103.05    MB
c 
c --- [ shutting down ] ------------------------------------------------------
c 
c exit 10
